objective value:                                    0
lambda[1,17]*                                       2 	(obj:0)
lambda[1,18]*                                       6 	(obj:0)
lambda[1,21]*                                       2 	(obj:0)
lambda[0,42]*                                       8 	(obj:0)
